(set-info :smt-lib-version 2.6)
(set-logic LIA)
(set-info
  :source |
 Generated by PSyCO 0.1
 More info in N. P. Lopes and J. Monteiro. Weakest Precondition Synthesis for
 Compiler Optimizations, VMCAI'14.
|)
(set-info :category "industrial")
(set-info :status unsat)
(declare-fun W_S1_V4 () Bool)
(declare-fun W_S1_V1 () Bool)
(declare-fun R_E1_V4 () Bool)
(declare-fun R_E1_V2 () Bool)
(declare-fun R_E1_V3 () Bool)
(declare-fun R_S1_V4 () Bool)
(declare-fun R_S1_V2 () Bool)
(declare-fun R_S1_V3 () Bool)
(declare-fun R_S1_V1 () Bool)
(declare-fun DISJ_W_S1_R_E1 () Bool)
(declare-fun DISJ_W_S1_R_S1 () Bool)
(declare-fun W_S1_V3 () Bool)
(declare-fun W_S1_V2 () Bool)
(declare-fun R_E1_V1 () Bool)
(assert
 (let
 (($x1318
   (forall
    ((V3_0 Int) (V2_0 Int) 
     (V4_0 Int) (MW_S1_V1 Bool) 
     (MW_S1_V3 Bool) (MW_S1_V2 Bool) 
     (MW_S1_V4 Bool) (S1_V3_!438 Int) 
     (S1_V3_!444 Int) (S1_V3_!449 Int) 
     (S1_V4_!440 Int) (S1_V4_!446 Int) 
     (S1_V4_!451 Int) (S1_V1_!437 Int) 
     (S1_V1_!443 Int) (S1_V1_!448 Int) 
     (S1_V2_!439 Int) (S1_V2_!445 Int) 
     (S1_V2_!450 Int) (E1_!436 Int) 
     (E1_!441 Int) (E1_!442 Int) 
     (E1_!447 Int) (E1_!452 Int))
    (let ((?x881 (ite MW_S1_V4 S1_V4_!451 V4_0)))
    (let (($x839 (= (ite MW_S1_V4 S1_V4_!440 V4_0) ?x881)))
    (let ((?x584 (ite MW_S1_V2 S1_V2_!450 V2_0)))
    (let ((?x607 (ite MW_S1_V2 S1_V2_!439 V2_0)))
    (let (($x873 (= ?x607 ?x584)))
    (let ((?x1198 (ite MW_S1_V3 S1_V3_!449 V3_0)))
    (let (($x872 (= (ite MW_S1_V3 S1_V3_!438 V3_0) ?x1198)))
    (let
    (($x1126
      (<= E1_!452
      (+ (- 1)
      (ite MW_S1_V1 S1_V1_!448
      (+ (- 1) (ite MW_S1_V1 S1_V1_!443 (+ (- 1) V2_0))))))))
    (let
    (($x848
      (and (not (<= V2_0 E1_!436))
      (>= (ite MW_S1_V1 S1_V1_!437 E1_!436) (+ (- 1) ?x607))
      (not (<= V2_0 E1_!441)) 
      (>= V2_0 (+ 1 E1_!442))
      (>= (ite MW_S1_V1 S1_V1_!443 (+ (- 1) V2_0)) (+ 1 E1_!447))
      (not $x1126))))
    (let (($x1150 (or (not MW_S1_V4) W_S1_V4)))
    (let (($x761 (or (not MW_S1_V1) W_S1_V1)))
    (let (($x806 (= E1_!452 E1_!447)))
    (let (($x76 (not R_E1_V4)))
    (let (($x825 (or $x76 (= ?x881 (ite MW_S1_V4 S1_V4_!446 V4_0)))))
    (let (($x74 (not R_E1_V2)))
    (let (($x799 (or $x74 (= ?x584 (ite MW_S1_V2 S1_V2_!445 V2_0)))))
    (let (($x72 (not R_E1_V3)))
    (let (($x1285 (or $x72 (= ?x1198 (ite MW_S1_V3 S1_V3_!444 V3_0)))))
    (let (($x603 (= E1_!452 E1_!442)))
    (let (($x1020 (or $x76 (= ?x881 V4_0))))
    (let (($x1368 (or $x74 (= ?x584 V2_0))))
    (let (($x941 (or $x72 (= ?x1198 V3_0))))
    (let (($x824 (not (and $x941 $x1368 $x1020))))
    (let (($x992 (= E1_!447 E1_!442)))
    (let ((?x750 (ite MW_S1_V4 S1_V4_!446 V4_0)))
    (let (($x1003 (= ?x750 V4_0)))
    (let (($x963 (or $x76 $x1003)))
    (let ((?x768 (ite MW_S1_V2 S1_V2_!445 V2_0)))
    (let (($x962 (= ?x768 V2_0)))
    (let (($x976 (or $x74 $x962)))
    (let ((?x560 (ite MW_S1_V3 S1_V3_!444 V3_0)))
    (let (($x987 (= ?x560 V3_0)))
    (let (($x970 (or $x72 $x987)))
    (let (($x740 (= E1_!441 E1_!447)))
    (let (($x1282 (= V4_0 ?x750)))
    (let (($x1346 (or $x76 $x1282)))
    (let (($x1358 (= V2_0 ?x768)))
    (let (($x1018 (or $x74 $x1358)))
    (let (($x1347 (= V3_0 ?x560)))
    (let (($x1240 (or $x72 $x1347)))
    (let (($x930 (= E1_!441 E1_!442)))
    (let (($x1313 (= E1_!441 E1_!436)))
    (let (($x1253 (= E1_!436 E1_!442)))
    (let (($x1086 (= S1_V2_!450 S1_V2_!445)))
    (let (($x108 (not R_S1_V4)))
    (let (($x943 (or $x108 $x1003)))
    (let (($x106 (not R_S1_V2)))
    (let (($x1259 (or $x106 $x962)))
    (let (($x104 (not R_S1_V3)))
    (let (($x935 (or $x104 $x987)))
    (let (($x102 (not R_S1_V1)))
    (let
    (($x1371 (or $x102 (= (ite MW_S1_V1 S1_V1_!443 (+ (- 1) V2_0)) V2_0))))
    (let (($x832 (= S1_V2_!439 S1_V2_!450)))
    (let (($x1263 (or $x108 $x1282)))
    (let (($x907 (or $x106 $x1358)))
    (let (($x746 (or $x104 $x1347)))
    (let
    (($x1210
      (and
      (or $x102
      (= E1_!436 (+ (- 1) (ite MW_S1_V1 S1_V1_!443 (+ (- 1) V2_0))))) $x746
      $x907 $x1263)))
    (let (($x1174 (not $x1210)))
    (let (($x1087 (= S1_V4_!451 S1_V4_!440)))
    (let
    (($x1319
      (and
      (or $x102 (= (ite MW_S1_V1 S1_V1_!443 (+ (- 1) V2_0)) (+ 1 E1_!436)))
      $x935 $x1259 $x943)))
    (let (($x1063 (= S1_V4_!446 S1_V4_!451)))
    (let
    (($x1349 (or $x102 (= V2_0 (ite MW_S1_V1 S1_V1_!443 (+ (- 1) V2_0))))))
    (let
    (($x915
      (and
      (or (not (or $x102 (= E1_!436 (+ (- 1) V2_0))))
      (= S1_V3_!438 S1_V3_!444)) 
      (or $x1174 (= S1_V3_!438 S1_V3_!449))
      (or (not (and $x1349 $x746 $x907 $x1263)) (= S1_V3_!444 S1_V3_!449))
      (or (not (or $x102 (= V2_0 (+ 1 E1_!436)))) (= S1_V4_!446 S1_V4_!440))
      (or (not (and $x1349 $x746 $x907 $x1263)) $x1063)
      (or (not $x1319) $x1087)
      (or (not (or $x102 (= E1_!436 (+ (- 1) V2_0))))
      (= S1_V1_!437 S1_V1_!443)) 
      (or $x1174 (= S1_V1_!437 S1_V1_!448))
      (or (not (and $x1371 $x935 $x1259 $x943)) (= S1_V1_!448 S1_V1_!443))
      (or (not (or $x102 (= E1_!436 (+ (- 1) V2_0))))
      (= S1_V2_!439 S1_V2_!445)) 
      (or $x1174 $x832) (or (not (and $x1371 $x935 $x1259 $x943)) $x1086)
      $x1253 (or (not (and $x1240 $x1018 $x1346)) (= E1_!436 E1_!447)) $x1313
      $x930 (or (not (and $x1240 $x1018 $x1346)) $x740)
      (or (not (and $x970 $x976 $x963)) $x992) 
      (or $x824 (= E1_!452 E1_!436)) 
      (or $x824 (= E1_!452 E1_!441)) 
      (or $x824 $x603) (or (not (and $x1285 $x799 $x825)) $x806) $x761
      (not MW_S1_V2) $x1150)))
    (or (not $x915) (not $x848)
    (and (= (ite MW_S1_V1 S1_V1_!437 E1_!436) (+ (- 1) ?x584)) $x872 $x873
    $x839))))))))))))))))))))))))))))))))))))))))))))))))))))))))))))))))))))
 (let
 (($x555 (not (or (and W_S1_V1 R_S1_V1) R_S1_V3 (and W_S1_V4 R_S1_V4)))))
 (let (($x518 (not W_S1_V1)))
 (let (($x923 (and DISJ_W_S1_R_S1 DISJ_W_S1_R_E1)))
 (let (($x896 (or $x923 $x518 (and (not R_S1_V1) DISJ_W_S1_R_E1))))
 (let (($x522 (not W_S1_V2)))
 (let (($x70 (not R_E1_V1)))
 (and $x70 $x522 $x896 W_S1_V3 
 (= DISJ_W_S1_R_S1 $x555)
 (= DISJ_W_S1_R_E1 (not (or R_E1_V3 (and W_S1_V4 R_E1_V4)))) $x1318)))))))))
(assert (let (($x923 (and DISJ_W_S1_R_S1 DISJ_W_S1_R_E1))) (not $x923)))
(assert (not (and (not W_S1_V1) DISJ_W_S1_R_E1)))
(assert
 (let (($x102 (not R_S1_V1)))
 (let (($x1388 (and $x102 DISJ_W_S1_R_S1))) (not $x1388))))
(check-sat)
(exit)

